[VALIDATOR STDOUT]
Checking plan: /home/jfan5/Safety-gen/runs/benchmark/optic/spanner_20260129_162401/spanner/optic_results/spanner-s4-n3-l6-s4001.plan
Plan executed successfully - checking goal
Plan valid
Final value: 13 

Successful plans:
Value: 13
 /home/jfan5/Safety-gen/runs/benchmark/optic/spanner_20260129_162401/spanner/optic_results/spanner-s4-n3-l6-s4001.plan 13
